12
0 869 735 475 550 800 784 632 728 640 888 745
869 0 748 505 342 191 179 935 326 234 97 129
735 748 0 373 514 560 569 262 902 679 682 650
475 505 373 0 178 368 361 461 557 350 484 379
550 342 514 178 0 250 234 637 389 173 342 213
800 191 560 368 250 0 23 761 446 256 125 139
784 179 569 361 234 23 0 764 424 233 125 117
632 935 262 461 637 761 764 0 1017 810 887 820
728 326 902 557 389 446 424 1017 0 224 414 307
640 234 679 350 173 256 233 810 224 0 281 131
888 97 682 484 342 125 125 887 414 281 0 151
745 129 650 379 213 139 117 820 307 131 151 0
